all_keccak_equations/0xF695420FBFFE73E4_0x62856BB362D0049D_0x7503F65A383E8395_0x598E01111D240EC8_39/maximal_linearize.log

# variables: 2240
# non-linear: 256

        0.00 - Start computation

        0.00 - target guess 160
Set parameter Username
Academic license - for non-commercial use only - expires 2022-06-20
Set parameter Threads to value 64
Set parameter MIPFocus to value 3
        0.04 - there are 115 short nonlinear (11) polynomial
Set parameter TimeLimit to value 1800
Gurobi Optimizer version 9.5.0 build v9.5.0rc5 (linux64)
Thread count: 32 physical cores, 64 logical processors, using up to 64 threads
Optimize a model with 5345 rows, 2496 columns and 16713 nonzeros
Model fingerprint: 0x7d28ee5c
Variable types: 0 continuous, 2496 integer (2496 binary)
Coefficient statistics:
  Matrix range     [1e+00, 1e+00]
  Objective range  [1e+00, 1e+00]
  Bounds range     [1e+00, 1e+00]
  RHS range        [3e+01, 2e+02]
Presolve removed 4078 rows and 1306 columns
Presolve time: 0.01s
Presolved: 1267 rows, 1190 columns, 4909 nonzeros
Variable types: 0 continuous, 1190 integer (1127 binary)
Root relaxation presolved: 1267 rows, 1190 columns, 4909 nonzeros


Root relaxation: objective 3.400000e+01, 1588 iterations, 0.05 seconds (0.05 work units)

    Nodes    |    Current Node    |     Objective Bounds      |     Work
 Expl Unexpl |  Obj  Depth IntInf | Incumbent    BestBd   Gap | It/Node Time

     0     0   34.00000    0   46          -   34.00000      -     -    0s
H    0     0                      34.0000000   34.00000  0.00%     -    0s

Cutting planes:
  Gomory: 3
  Zero half: 10
  RLT: 1

Explored 1 nodes (3318 simplex iterations) in 0.33 seconds (0.21 work units)
Thread count was 64 (of 64 available processors)

Solution count 1: 34 

Optimal solution found (tolerance 1.00e-04)
Best objective 3.400000000000e+01, best bound 3.400000000000e+01, gap 0.0000%
        0.38 - 	Solution num 1:
guessed:  x658 x661 x678 x773 x788 x791 x793 x802 x808 x816 x836 x850 x871 x886 x991 x992 x1008 x1011 x1017 x1020 x1030 x1048 x1064 x1067 x1076 x1084 x1102 x1103 x1105 x1106 x1114 x1122 x1130 x1131 x1149 x1150 x1165 x1190 x1209 x1220 x1225 x1244 x1264 x1280 x1281 x1297 x1308 x1317 x1324 x1356 x1358 x1365 x1381 x1383 x1453 x1457 x1475 x1476 x1482 x1494 x1501 x1521 x1528 x1531 x1544 x1546 x1564 x1585 x1589 x1592 x1604 x1612 x1625 x1642 x1645 x1646 x1649 x1656 x1662 x1685 x1702 x1705 x1706 x1707 x1711 x1712 x1716 x1722 x1743 x1759 x1760 x1779 x1793 x1799 x1802 x1810 x1818 x1837 x1838 x1854 x1870 x1881 x1887 x1895 x1897 x1914 x1915 x1925 x1932 x1948 x1950 x1953 x1985 x1986 x1988 x2001 x2006 x2007 x2009 x2010 x2012 x2021 x2028 x2029 x2030 x2033 x2050 x2052 x2054 x2061 x2072 x2078 x2081 x2097 x2098 x2099 x2100 x2102 x2142 x2143 x2144 x2147 x2153 x2159 x2168 x2171 x2179 x2185 x2186 x2187 x2189 x2192 x2195 x2196 x2199 x2208 x2210 x2213 x2231 x2232[160]
linearized equations:  3 4 20 23 29 32 46 48 50 64 68 72 73 84 91 92 93 111 112 131 135 138 146 154 156 190 196 200 232 235 237 243 246 252
        0.38 - target guess 159
Set parameter Username
Academic license - for non-commercial use only - expires 2022-06-20
Set parameter Threads to value 64
Set parameter MIPFocus to value 3
        0.40 - there are 115 short nonlinear (11) polynomial
Set parameter TimeLimit to value 1800
Gurobi Optimizer version 9.5.0 build v9.5.0rc5 (linux64)
Thread count: 32 physical cores, 64 logical processors, using up to 64 threads
Optimize a model with 5345 rows, 2496 columns and 16713 nonzeros
Model fingerprint: 0x9b82751e
Variable types: 0 continuous, 2496 integer (2496 binary)
Coefficient statistics:
  Matrix range     [1e+00, 1e+00]
  Objective range  [1e+00, 1e+00]
  Bounds range     [1e+00, 1e+00]
  RHS range        [4e+01, 2e+02]
Presolve removed 4078 rows and 1306 columns
Presolve time: 0.01s
Presolved: 1267 rows, 1190 columns, 4909 nonzeros
Variable types: 0 continuous, 1190 integer (1127 binary)
Root relaxation presolved: 1267 rows, 1190 columns, 4909 nonzeros


Root relaxation: objective 3.500000e+01, 1560 iterations, 0.05 seconds (0.05 work units)

    Nodes    |    Current Node    |     Objective Bounds      |     Work
 Expl Unexpl |  Obj  Depth IntInf | Incumbent    BestBd   Gap | It/Node Time

*    0     0               0      35.0000000   35.00000  0.00%     -    0s

Explored 1 nodes (3510 simplex iterations) in 0.38 seconds (0.22 work units)
Thread count was 64 (of 64 available processors)

Solution count 1: 35 

Optimal solution found (tolerance 1.00e-04)
Best objective 3.500000000000e+01, best bound 3.500000000000e+01, gap 0.0000%
        0.78 - 	Solution num 1:
guessed:  x661 x681 x686 x700 x744 x746 x791 x793 x797 x802 x811 x816 x830 x836 x850 x864 x871 x910 x958 x1011 x1017 x1020 x1030 x1042 x1067 x1074 x1076 x1087 x1103 x1105 x1106 x1107 x1112 x1130 x1131 x1144 x1149 x1159 x1186 x1190 x1191 x1209 x1221 x1225 x1226 x1239 x1280 x1306 x1308 x1324 x1339 x1356 x1358 x1365 x1383 x1401 x1453 x1476 x1484 x1485 x1492 x1494 x1524 x1531 x1544 x1546 x1585 x1589 x1592 x1601 x1604 x1607 x1612 x1620 x1621 x1625 x1642 x1645 x1646 x1649 x1652 x1667 x1680 x1685 x1705 x1706 x1707 x1711 x1716 x1725 x1742 x1743 x1755 x1760 x1761 x1774 x1779 x1793 x1799 x1802 x1813 x1818 x1819 x1832 x1837 x1870 x1881 x1890 x1895 x1896 x1897 x1909 x1914 x1925 x1932 x1946 x1953 x1986 x1988 x2006 x2007 x2010 x2012 x2015 x2026 x2029 x2030 x2031 x2033 x2043 x2050 x2054 x2061 x2078 x2081 x2095 x2098 x2102 x2142 x2143 x2144 x2153 x2164 x2168 x2171 x2176 x2179 x2185 x2186 x2189 x2191 x2192 x2195 x2196 x2199 x2206 x2209 x2210 x2213[159]
linearized equations:  3 23 25 29 30 32 43 46 48 50 62 68 73 92 93 106 111 131 135 138 149 152 154 155 156 168 193 196 200 210 235 237 243 246 255
        0.78 - target guess 158
Set parameter Username
Academic license - for non-commercial use only - expires 2022-06-20
Set parameter Threads to value 64
Set parameter MIPFocus to value 3
        0.79 - there are 115 short nonlinear (11) polynomial
Set parameter TimeLimit to value 1800
Gurobi Optimizer version 9.5.0 build v9.5.0rc5 (linux64)
Thread count: 32 physical cores, 64 logical processors, using up to 64 threads
Optimize a model with 5345 rows, 2496 columns and 16713 nonzeros
Model fingerprint: 0x98ffdcba
Variable types: 0 continuous, 2496 integer (2496 binary)
Coefficient statistics:
  Matrix range     [1e+00, 1e+00]
  Objective range  [1e+00, 1e+00]
  Bounds range     [1e+00, 1e+00]
  RHS range        [4e+01, 2e+02]
Presolve removed 4078 rows and 1306 columns
Presolve time: 0.01s
Presolved: 1267 rows, 1190 columns, 4909 nonzeros
Variable types: 0 continuous, 1190 integer (1127 binary)
Root relaxation presolved: 1267 rows, 1190 columns, 4909 nonzeros


Root relaxation: objective 3.600000e+01, 1668 iterations, 0.05 seconds (0.05 work units)

    Nodes    |    Current Node    |     Objective Bounds      |     Work
 Expl Unexpl |  Obj  Depth IntInf | Incumbent    BestBd   Gap | It/Node Time

H    0     0                      36.0000000  115.00000   219%     -    0s
     0     0          -    0        36.00000   36.00000  0.00%     -    0s

Explored 1 nodes (4305 simplex iterations) in 0.33 seconds (0.21 work units)
Thread count was 64 (of 64 available processors)

Solution count 1: 36 

Optimal solution found (tolerance 1.00e-04)
Best objective 3.600000000000e+01, best bound 3.600000000000e+01, gap 0.0000%
        1.12 - 	Solution num 1:
guessed:  x655 x658 x678 x681 x686 x700 x718 x744 x746 x785 x791 x793 x797 x808 x811 x816 x830 x850 x864 x883 x910 x948 x954 x956 x1008 x1017 x1030 x1042 x1046 x1061 x1064 x1067 x1084 x1087 x1102 x1103 x1111 x1122 x1130 x1144 x1159 x1178 x1179 x1190 x1209 x1220 x1225 x1236 x1239 x1244 x1258 x1278 x1297 x1306 x1339 x1356 x1358 x1383 x1453 x1482 x1485 x1494 x1496 x1501 x1521 x1524 x1528 x1531 x1535 x1536 x1544 x1546 x1585 x1589 x1601 x1604 x1612 x1614 x1620 x1639 x1642 x1645 x1646 x1666 x1680 x1699 x1702 x1705 x1706 x1707 x1711 x1722 x1723 x1725 x1755 x1760 x1774 x1793 x1799 x1810 x1813 x1816 x1832 x1851 x1854 x1870 x1887 x1890 x1895 x1909 x1946 x1950 x1951 x1953 x1986 x1988 x2000 x2001 x2010 x2021 x2025 x2026 x2029 x2030 x2033 x2043 x2049 x2052 x2054 x2061 x2069 x2072 x2078 x2095 x2099 x2102 x2138 x2142 x2143 x2144 x2164 x2168 x2171 x2176 x2184 x2185 x2187 x2188 x2189 x2191 x2192 x2195 x2196 x2206 x2209 x2210 x2213 x2232[158]
linearized equations:  20 23 29 40 43 46 48 50 62 64 68 73 84 92 93 106 125 131 135 146 149 152 154 156 168 187 190 193 196 200 210 229 232 235 252 255
        1.12 - target guess 157
Set parameter Username
Academic license - for non-commercial use only - expires 2022-06-20
Set parameter Threads to value 64
Set parameter MIPFocus to value 3
        1.14 - there are 115 short nonlinear (11) polynomial
Set parameter TimeLimit to value 1800
Gurobi Optimizer version 9.5.0 build v9.5.0rc5 (linux64)
Thread count: 32 physical cores, 64 logical processors, using up to 64 threads
Optimize a model with 5345 rows, 2496 columns and 16713 nonzeros
Model fingerprint: 0xffb6c793
Variable types: 0 continuous, 2496 integer (2496 binary)
Coefficient statistics:
  Matrix range     [1e+00, 1e+00]
  Objective range  [1e+00, 1e+00]
  Bounds range     [1e+00, 1e+00]
  RHS range        [4e+01, 2e+02]
Presolve removed 4078 rows and 1306 columns
Presolve time: 0.01s
Presolved: 1267 rows, 1190 columns, 4909 nonzeros
Variable types: 0 continuous, 1190 integer (1127 binary)
Root relaxation presolved: 1267 rows, 1190 columns, 4909 nonzeros


Root relaxation: objective 3.700000e+01, 1671 iterations, 0.06 seconds (0.06 work units)

    Nodes    |    Current Node    |     Objective Bounds      |     Work
 Expl Unexpl |  Obj  Depth IntInf | Incumbent    BestBd   Gap | It/Node Time

     0     0   37.00000    0   51          -   37.00000      -     -    0s
H    0     0                      37.0000000   37.00000  0.00%     -    0s

Cutting planes:
  Gomory: 3
  Zero half: 34
  RLT: 1

Explored 1 nodes (3862 simplex iterations) in 0.55 seconds (0.31 work units)
Thread count was 64 (of 64 available processors)

Solution count 1: 37 

Optimal solution found (tolerance 1.00e-04)
Best objective 3.700000000000e+01, best bound 3.700000000000e+01, gap 0.0000%
        1.69 - 	Solution num 1:
guessed:  x655 x658 x678 x686 x700 x718 x723 x785 x788 x793 x808 x816 x830 x850 x864 x883 x886 x948 x958 x963 x1008 x1017 x1030 x1042 x1064 x1081 x1084 x1107 x1111 x1119 x1121 x1122 x1130 x1131 x1143 x1144 x1158 x1159 x1186 x1190 x1198 x1200 x1209 x1221 x1225 x1233 x1235 x1236 x1257 x1297 x1306 x1323 x1339 x1358 x1383 x1453 x1475 x1482 x1492 x1494 x1501 x1521 x1528 x1531 x1535 x1536 x1544 x1546 x1585 x1589 x1601 x1604 x1612 x1614 x1619 x1620 x1621 x1625 x1634 x1639 x1642 x1645 x1646 x1656 x1659 x1661 x1666 x1667 x1679 x1680 x1699 x1702 x1706 x1711 x1719 x1721 x1722 x1723 x1760 x1774 x1799 x1807 x1809 x1810 x1816 x1831 x1832 x1833 x1851 x1854 x1884 x1886 x1887 x1895 x1897 x1908 x1909 x1925 x1926 x1950 x1964 x1986 x1988 x2001 x2009 x2010 x2021 x2029 x2030 x2032 x2033 x2043 x2049 x2052 x2054 x2061 x2069 x2071 x2072 x2078 x2093 x2117 x2118 x2143 x2147 x2168 x2184 x2185 x2187 x2188 x2189 x2195 x2196 x2209 x2210 x2231 x2232[157]
linearized equations:  20 25 29 37 39 40 46 48 50 61 62 64 68 72 73 81 83 84 92 93 105 106 131 135 146 154 156 168 187 190 196 210 211 229 232 251 252
        1.69 - target guess 156
Set parameter Username
Academic license - for non-commercial use only - expires 2022-06-20
Set parameter Threads to value 64
Set parameter MIPFocus to value 3
        1.71 - there are 115 short nonlinear (11) polynomial
Set parameter TimeLimit to value 1800
Gurobi Optimizer version 9.5.0 build v9.5.0rc5 (linux64)
Thread count: 32 physical cores, 64 logical processors, using up to 64 threads
Optimize a model with 5345 rows, 2496 columns and 16713 nonzeros
Model fingerprint: 0x8d477fe0
Variable types: 0 continuous, 2496 integer (2496 binary)
Coefficient statistics:
  Matrix range     [1e+00, 1e+00]
  Objective range  [1e+00, 1e+00]
  Bounds range     [1e+00, 1e+00]
  RHS range        [4e+01, 2e+02]
Presolve removed 4078 rows and 1306 columns
Presolve time: 0.01s
Presolved: 1267 rows, 1190 columns, 4909 nonzeros
Variable types: 0 continuous, 1190 integer (1127 binary)
Root relaxation presolved: 1267 rows, 1190 columns, 4909 nonzeros


Root relaxation: objective 3.800000e+01, 1796 iterations, 0.07 seconds (0.06 work units)

    Nodes    |    Current Node    |     Objective Bounds      |     Work
 Expl Unexpl |  Obj  Depth IntInf | Incumbent    BestBd   Gap | It/Node Time

     0     0   38.00000    0   20          -   38.00000      -     -    0s
H    0     0                      38.0000000   38.00000  0.00%     -    0s
     0     0   38.00000    0   19   38.00000   38.00000  0.00%     -    0s

Cutting planes:
  Gomory: 1
  Cover: 1
  Flow cover: 1
  Zero half: 17

Explored 1 nodes (4573 simplex iterations) in 0.56 seconds (0.38 work units)
Thread count was 64 (of 64 available processors)

Solution count 1: 38 

Optimal solution found (tolerance 1.00e-04)
Best objective 3.800000000000e+01, best bound 3.800000000000e+01, gap 0.0000%
        2.28 - 	Solution num 1:
guessed:  x658 x663 x678 x686 x688 x700 x744 x746 x788 x793 x808 x811 x813 x816 x818 x830 x850 x864 x886 x910 x956 x958 x1008 x1017 x1030 x1042 x1046 x1064 x1084 x1085 x1087 x1102 x1107 x1122 x1144 x1148 x1159 x1186 x1190 x1221 x1224 x1225 x1236 x1239 x1297 x1306 x1318 x1324 x1339 x1358 x1362 x1373 x1375 x1382 x1383 x1475 x1476 x1482 x1483 x1485 x1488 x1492 x1494 x1495 x1501 x1521 x1528 x1531 x1538 x1544 x1545 x1589 x1601 x1604 x1608 x1614 x1620 x1624 x1630 x1642 x1645 x1646 x1647 x1662 x1663 x1680 x1702 x1707 x1711 x1722 x1723 x1725 x1755 x1760 x1774 x1795 x1799 x1810 x1811 x1813 x1832 x1836 x1854 x1887 x1888 x1890 x1896 x1897 x1909 x1932 x1946 x1949 x1986 x2001 x2009 x2010 x2012 x2021 x2026 x2029 x2031 x2032 x2033 x2043 x2050 x2052 x2053 x2054 x2061 x2073 x2078 x2081 x2095 x2098 x2102 x2138 x2139 x2144 x2147 x2150 x2159 x2164 x2171 x2187 x2189 x2191 x2192 x2195 x2196 x2197 x2203 x2206 x2209 x2213 x2219 x2233[156]
linearized equations:  2 20 25 29 40 41 43 46 48 50 62 64 72 73 84 85 92 106 110 131 135 146 149 152 154 155 156 168 190 193 196 200 210 232 237 243 252 255
        2.28 - target guess 155
Set parameter Username
Academic license - for non-commercial use only - expires 2022-06-20
Set parameter Threads to value 64
Set parameter MIPFocus to value 3
        2.29 - there are 115 short nonlinear (11) polynomial
Set parameter TimeLimit to value 1800
Gurobi Optimizer version 9.5.0 build v9.5.0rc5 (linux64)
Thread count: 32 physical cores, 64 logical processors, using up to 64 threads
Optimize a model with 5345 rows, 2496 columns and 16713 nonzeros
Model fingerprint: 0x32d7aadb
Variable types: 0 continuous, 2496 integer (2496 binary)
Coefficient statistics:
  Matrix range     [1e+00, 1e+00]
  Objective range  [1e+00, 1e+00]
  Bounds range     [1e+00, 1e+00]
  RHS range        [4e+01, 2e+02]
Presolve removed 4078 rows and 1306 columns
Presolve time: 0.01s
Presolved: 1267 rows, 1190 columns, 4909 nonzeros
Variable types: 0 continuous, 1190 integer (1127 binary)
Root relaxation presolved: 1267 rows, 1190 columns, 4909 nonzeros


Root relaxation: objective 3.900000e+01, 1873 iterations, 0.05 seconds (0.07 work units)

    Nodes    |    Current Node    |     Objective Bounds      |     Work
 Expl Unexpl |  Obj  Depth IntInf | Incumbent    BestBd   Gap | It/Node Time

     0     0   39.00000    0  157          -   39.00000      -     -    0s
     0     0   39.00000    0  446          -   39.00000      -     -    0s
     0     0   39.00000    0  438          -   39.00000      -     -    0s
     0     0 -1.000e+100    0  370          - infeasible      -     -    1s

Cutting planes:
  Gomory: 21
  Flow cover: 2
  Zero half: 156

Explored 1 nodes (7276 simplex iterations) in 1.15 seconds (1.20 work units)
Thread count was 64 (of 64 available processors)

Solution count 0
No other solutions better than -1e+100

Model is infeasible
Best objective -, best bound -, gap -
        3.44 - 	Solution num 0:
        3.45 - increase high_eq_constraint to 1

Set parameter Username
Academic license - for non-commercial use only - expires 2022-06-20
Set parameter Threads to value 64
Set parameter MIPFocus to value 3
        3.50 - there are 115 short nonlinear (11) polynomial
Set parameter TimeLimit to value 1800
Gurobi Optimizer version 9.5.0 build v9.5.0rc5 (linux64)
Thread count: 32 physical cores, 64 logical processors, using up to 64 threads
Optimize a model with 5345 rows, 2496 columns and 16713 nonzeros
Model fingerprint: 0xa1294591
Variable types: 0 continuous, 2496 integer (2496 binary)
Coefficient statistics:
  Matrix range     [1e+00, 1e+00]
  Objective range  [1e+00, 1e+00]
  Bounds range     [1e+00, 1e+00]
  RHS range        [1e+00, 2e+02]
Presolve removed 975 rows and 975 columns
Presolve time: 0.01s
Presolved: 4370 rows, 1521 columns, 14622 nonzeros
Variable types: 0 continuous, 1521 integer (1521 binary)
Root relaxation presolved: 4370 rows, 1521 columns, 14622 nonzeros


Root relaxation: objective 3.900000e+01, 2322 iterations, 0.13 seconds (0.25 work units)

    Nodes    |    Current Node    |     Objective Bounds      |     Work
 Expl Unexpl |  Obj  Depth IntInf | Incumbent    BestBd   Gap | It/Node Time

     0     0   39.00000    0  398          -   39.00000      -     -    1s
     0     0   39.00000    0  437          -   39.00000      -     -    2s
     0     0   39.00000    0  506          -   39.00000      -     -    2s
     0     0   39.00000    0  474          -   39.00000      -     -    4s
     0     0   39.00000    0  474          -   39.00000      -     -    5s
     0     2   39.00000    0  474          -   39.00000      -     -    6s
    15    12 infeasible    4               -   39.00000      -   614   10s
    59    66   39.00000    7  376          -   39.00000      -   735   18s
    95    92 infeasible    8               -   39.00000      -   991   21s
*  287    80              11      39.0000000   39.00000  0.00%   659   24s

Cutting planes:
  Gomory: 1
  Lift-and-project: 1
  Flow cover: 9
  Zero half: 996
  RLT: 446

Explored 351 nodes (252291 simplex iterations) in 24.96 seconds (23.07 work units)
Thread count was 64 (of 64 available processors)

Solution count 1: 39 

Optimal solution found (tolerance 1.00e-04)
Best objective 3.900000000000e+01, best bound 3.900000000000e+01, gap 0.0000%
       28.68 - 	Solution num 1:
guessed:  x655 x678 x681 x686 x700 x718 x744 x785 x799 x808 x809 x811 x816 x830 x847 x850 x864 x883 x910 x948 x1008 x1042 x1061 x1064 x1081 x1084 x1087 x1099 x1100 x1102 x1122 x1125 x1130 x1144 x1159 x1178 x1179 x1186 x1198 x1209 x1233 x1235 x1277 x1278 x1297 x1306 x1317 x1339 x1362 x1373 x1457 x1465 x1473 x1475 x1482 x1484 x1485 x1486 x1492 x1501 x1521 x1524 x1528 x1536 x1577 x1589 x1599 x1601 x1604 x1606 x1612 x1620 x1625 x1640 x1642 x1645 x1646 x1653 x1659 x1666 x1680 x1699 x1700 x1701 x1702 x1713 x1719 x1720 x1721 x1722 x1725 x1743 x1755 x1760 x1774 x1801 x1809 x1810 x1813 x1832 x1852 x1854 x1858 x1865 x1884 x1887 x1890 x1895 x1909 x1920 x1940 x1946 x1982 x1986 x1988 x1998 x2000 x2009 x2010 x2012 x2020 x2021 x2022 x2026 x2029 x2033 x2043 x2049 x2050 x2052 x2069 x2071 x2072 x2078 x2085 x2095 x2138 x2139 x2147 x2164 x2178 x2179 x2180 x2184 x2187 x2188 x2189 x2191 x2192 x2195 x2196 x2198 x2206 x2209 x2213[155]
linearized equations:  18 20 29 37 39 40 43 46 48 62 64 72 81 83 84 92 106 125 126 135 137 146 149 152 154 168 187 188 190 193 196 210 229 231 232 243 251 252 255
       28.71 - target guess 154
Set parameter Username
Academic license - for non-commercial use only - expires 2022-06-20
Set parameter Threads to value 64
Set parameter MIPFocus to value 3
       28.75 - there are 115 short nonlinear (11) polynomial
Set parameter TimeLimit to value 1800
Gurobi Optimizer version 9.5.0 build v9.5.0rc5 (linux64)
Thread count: 32 physical cores, 64 logical processors, using up to 64 threads
Optimize a model with 5345 rows, 2496 columns and 16713 nonzeros
Model fingerprint: 0xa76408e9
Variable types: 0 continuous, 2496 integer (2496 binary)
Coefficient statistics:
  Matrix range     [1e+00, 1e+00]
  Objective range  [1e+00, 1e+00]
  Bounds range     [1e+00, 1e+00]
  RHS range        [4e+01, 2e+02]
Presolve removed 4078 rows and 1306 columns
Presolve time: 0.01s
Presolved: 1267 rows, 1190 columns, 4909 nonzeros
Variable types: 0 continuous, 1190 integer (1127 binary)
Root relaxation presolved: 1267 rows, 1190 columns, 4909 nonzeros


Root relaxation: infeasible, 1974 iterations, 0.10 seconds (0.09 work units)

    Nodes    |    Current Node    |     Objective Bounds      |     Work
 Expl Unexpl |  Obj  Depth IntInf | Incumbent    BestBd   Gap | It/Node Time

     0     0 infeasible    0               - infeasible      -     -    0s

Explored 1 nodes (1974 simplex iterations) in 0.14 seconds (0.11 work units)
Thread count was 64 (of 64 available processors)

Solution count 0
No other solutions better than -1e+100

Model is infeasible
Best objective -, best bound -, gap -
       28.89 - 	Solution num 0:
       28.89 - increase high_eq_constraint to 1

Set parameter Username
Academic license - for non-commercial use only - expires 2022-06-20
Set parameter Threads to value 64
Set parameter MIPFocus to value 3
       28.92 - there are 115 short nonlinear (11) polynomial
Set parameter TimeLimit to value 1800
Gurobi Optimizer version 9.5.0 build v9.5.0rc5 (linux64)
Thread count: 32 physical cores, 64 logical processors, using up to 64 threads
Optimize a model with 5345 rows, 2496 columns and 16713 nonzeros
Model fingerprint: 0x7ab061fc
Variable types: 0 continuous, 2496 integer (2496 binary)
Coefficient statistics:
  Matrix range     [1e+00, 1e+00]
  Objective range  [1e+00, 1e+00]
  Bounds range     [1e+00, 1e+00]
  RHS range        [1e+00, 2e+02]
Presolve removed 975 rows and 975 columns
Presolve time: 0.02s
Presolved: 4370 rows, 1521 columns, 14622 nonzeros
Variable types: 0 continuous, 1521 integer (1521 binary)
Root relaxation presolved: 4370 rows, 1521 columns, 14622 nonzeros


Root relaxation: objective 4.000000e+01, 2305 iterations, 0.24 seconds (0.27 work units)

    Nodes    |    Current Node    |     Objective Bounds      |     Work
 Expl Unexpl |  Obj  Depth IntInf | Incumbent    BestBd   Gap | It/Node Time

     0     0   40.00000    0  414          -   40.00000      -     -    1s
     0     0   40.00000    0  458          -   40.00000      -     -    3s
     0     0 -1.000e+100    0  620          - infeasible      -     -    3s

Cutting planes:
  Gomory: 1
  Lift-and-project: 1
  Zero half: 19
  RLT: 3

Explored 1 nodes (19602 simplex iterations) in 3.61 seconds (4.18 work units)
Thread count was 64 (of 64 available processors)

Solution count 0
No other solutions better than -1e+100

Model is infeasible
Best objective -, best bound -, gap -
       32.54 - 	Solution num 0:
       32.54 - increase high_eq_constraint to 2

Set parameter Username
Academic license - for non-commercial use only - expires 2022-06-20
Set parameter Threads to value 64
Set parameter MIPFocus to value 3
       32.59 - there are 115 short nonlinear (11) polynomial
Set parameter TimeLimit to value 1800
Gurobi Optimizer version 9.5.0 build v9.5.0rc5 (linux64)
Thread count: 32 physical cores, 64 logical processors, using up to 64 threads
Optimize a model with 5345 rows, 2496 columns and 16713 nonzeros
Model fingerprint: 0x85a7d653
Variable types: 0 continuous, 2496 integer (2496 binary)
Coefficient statistics:
  Matrix range     [1e+00, 1e+00]
  Objective range  [1e+00, 1e+00]
  Bounds range     [1e+00, 1e+00]
  RHS range        [2e+00, 2e+02]
Presolve removed 975 rows and 975 columns
Presolve time: 0.02s
Presolved: 4370 rows, 1521 columns, 14622 nonzeros
Variable types: 0 continuous, 1521 integer (1521 binary)
Root relaxation presolved: 4370 rows, 1521 columns, 14622 nonzeros


Root relaxation: objective 4.000000e+01, 2561 iterations, 0.29 seconds (0.36 work units)

    Nodes    |    Current Node    |     Objective Bounds      |     Work
 Expl Unexpl |  Obj  Depth IntInf | Incumbent    BestBd   Gap | It/Node Time

     0     0   40.00000    0  700          -   40.00000      -     -    1s
     0     0   40.00000    0  521          -   40.00000      -     -    4s
     0     0   40.00000    0  507          -   40.00000      -     -    6s
     0     0   40.00000    0  507          -   40.00000      -     -    8s
     0     2   40.00000    0  507          -   40.00000      -     -   10s
    15    14   40.00000    4  819          -   40.00000      -  1081   15s
    59    54   40.00000    7  609          -   40.00000      -   881   21s
    91    58   40.00000    8  681          -   40.00000      -  1078   25s
   249     6 infeasible   11               -   40.00000      -   855   30s

Cutting planes:
  Gomory: 6
  Lift-and-project: 1
  Flow cover: 7
  Zero half: 834
  RLT: 251

Explored 275 nodes (260173 simplex iterations) in 32.23 seconds (27.62 work units)
Thread count was 64 (of 64 available processors)

Solution count 0
No other solutions better than -1e+100

Model is infeasible
Best objective -, best bound -, gap -
       64.97 - 	Solution num 0:
       64.98 - increase high_eq_constraint to 3

Set parameter Username
Academic license - for non-commercial use only - expires 2022-06-20
Set parameter Threads to value 64
Set parameter MIPFocus to value 3
       65.02 - there are 115 short nonlinear (11) polynomial
Set parameter TimeLimit to value 1800
Gurobi Optimizer version 9.5.0 build v9.5.0rc5 (linux64)
Thread count: 32 physical cores, 64 logical processors, using up to 64 threads
Optimize a model with 5345 rows, 2496 columns and 16713 nonzeros
Model fingerprint: 0x587111f1
Variable types: 0 continuous, 2496 integer (2496 binary)
Coefficient statistics:
  Matrix range     [1e+00, 1e+00]
  Objective range  [1e+00, 1e+00]
  Bounds range     [1e+00, 1e+00]
  RHS range        [3e+00, 2e+02]
Presolve removed 975 rows and 975 columns
Presolve time: 0.02s
Presolved: 4370 rows, 1521 columns, 14622 nonzeros
Variable types: 0 continuous, 1521 integer (1521 binary)
Root relaxation presolved: 4370 rows, 1521 columns, 14622 nonzeros


Root relaxation: objective 4.000000e+01, 2646 iterations, 0.28 seconds (0.34 work units)

    Nodes    |    Current Node    |     Objective Bounds      |     Work
 Expl Unexpl |  Obj  Depth IntInf | Incumbent    BestBd   Gap | It/Node Time

     0     0   40.00000    0  882          -   40.00000      -     -    1s
     0     0   40.00000    0  686          -   40.00000      -     -    4s
     0     0   40.00000    0  970          -   40.00000      -     -    4s
     0     0   40.00000    0  774          -   40.00000      -     -    7s
     0     0   40.00000    0  774          -   40.00000      -     -    9s
     0     2   40.00000    0  774          -   40.00000      -     -   12s
     8    16   40.00000    3  587          -   40.00000      -   881   15s
    31    64   40.00000    5  852          -   40.00000      -  1101   21s
   127   180   40.00000    7  723          -   40.00000      -   923   26s
   255   270   40.00000    9  492          -   40.00000      -   933   31s
   405   297   40.00000   11  681          -   40.00000      -   863   35s
   845   322 infeasible   11               -   40.00000      -   802   41s
  1057   372   40.00000   12  780          -   40.00000      -   739   45s
  1492   384 infeasible   17               -   40.00000      -   857   53s
  1799   372 infeasible   16               -   40.00000      -   848   57s
  2081   364   40.00000   19  974          -   40.00000      -   850   61s
  2379   376 infeasible   27               -   40.00000      -   855   66s
  2703   334 infeasible   20               -   40.00000      -   856   70s
  2993   353   40.00000   28  836          -   40.00000      -   850   77s
  3334   340   40.00000   30  845          -   40.00000      -   849   85s
  3715   342   40.00000   33  877          -   40.00000      -   845   93s
  4101   365 infeasible   23               -   40.00000      -   843   99s
  4538   312 infeasible   30               -   40.00000      -   836  107s
  4967   285 infeasible   23               -   40.00000      -   833  113s
  5344   257   40.00000   19  935          -   40.00000      -   829  120s
  5740   271 infeasible   18               -   40.00000      -   824  126s
  6146   289   40.00000   18  932          -   40.00000      -   820  134s
  6550   341   40.00000   20 1000          -   40.00000      -   820  144s
  6976   310 infeasible   33               -   40.00000      -   819  158s
  7463   296   40.00000   15  778          -   40.00000      -   817  170s
  7915   254 infeasible   17               -   40.00000      -   817  187s
  8359   199   40.00000   17  983          -   40.00000      -   816  198s
  8750   122 infeasible   19               -   40.00000      -   816  206s
  9081    40 infeasible   20               -   40.00000      -   817  211s
  9273    14   40.00000   21  904          -   40.00000      -   817  217s
  9366     4   40.00000   17  920          -   40.00000      -   818  224s
  9387     0 infeasible   18               -   40.00000      -   817  225s

Cutting planes:
  Gomory: 4
  Flow cover: 5
  Zero half: 815
  RLT: 103

Explored 9391 nodes (7698068 simplex iterations) in 225.31 seconds (168.14 work units)
Thread count was 64 (of 64 available processors)

Solution count 0
No other solutions better than -1e+100

Model is infeasible
Best objective -, best bound -, gap -
      290.34 - 	Solution num 0:
      290.34 - increase high_eq_constraint to 4

Set parameter Username
Academic license - for non-commercial use only - expires 2022-06-20
Set parameter Threads to value 64
Set parameter MIPFocus to value 3
      290.42 - there are 115 short nonlinear (11) polynomial
Set parameter TimeLimit to value 1800
Gurobi Optimizer version 9.5.0 build v9.5.0rc5 (linux64)
Thread count: 32 physical cores, 64 logical processors, using up to 64 threads
Optimize a model with 5345 rows, 2496 columns and 16713 nonzeros
Model fingerprint: 0xc981f901
Variable types: 0 continuous, 2496 integer (2496 binary)
Coefficient statistics:
  Matrix range     [1e+00, 1e+00]
  Objective range  [1e+00, 1e+00]
  Bounds range     [1e+00, 1e+00]
  RHS range        [4e+00, 2e+02]
Presolve removed 975 rows and 975 columns
Presolve time: 0.01s
Presolved: 4370 rows, 1521 columns, 14622 nonzeros
Variable types: 0 continuous, 1521 integer (1521 binary)
Root relaxation presolved: 4370 rows, 1521 columns, 14622 nonzeros


Root relaxation: objective 4.000000e+01, 2868 iterations, 0.22 seconds (0.40 work units)

    Nodes    |    Current Node    |     Objective Bounds      |     Work
 Expl Unexpl |  Obj  Depth IntInf | Incumbent    BestBd   Gap | It/Node Time

     0     0   40.00000    0  852          -   40.00000      -     -    1s
     0     0   40.00000    0  875          -   40.00000      -     -    2s
     0     0   40.00000    0  857          -   40.00000      -     -    2s
     0     0   40.00000    0  865          -   40.00000      -     -    4s
     0     0   40.00000    0  865          -   40.00000      -     -    5s
     0     2   40.00000    0  841          -   40.00000      -     -    7s
    31    64   40.00000    5  562          -   40.00000      -   375   10s
   191   254   40.00000    8  773          -   40.00000      -   769   15s
   732  1020   40.00000   10  928          -   40.00000      -   768   22s
  1199  1390   40.00000   14  988          -   40.00000      -   969   29s
  2171  1813   40.00000   13  979          -   40.00000      -   903   34s
  3990  2247   40.00000   15 1023          -   40.00000      -   689   45s
  5702  2825   40.00000   10  842          -   40.00000      -   708   56s
  8542  3404   40.00000   11  747          -   40.00000      -   615   73s
 11975  3998   40.00000   18  865          -   40.00000      -   565  100s
 15429  4519   40.00000    9  933          -   40.00000      -   567  133s
 19245  4520   40.00000   14  865          -   40.00000      -   545  137s
 19247  4521   40.00000   17  852          -   40.00000      -   545  141s
 19249  4523   40.00000   16  897          -   40.00000      -   545  148s
 19250  4523   40.00000   12  830          -   40.00000      -   545  154s
 19251  4524   40.00000   23  857          -   40.00000      -   545  158s
 19252  4525   40.00000   18  829          -   40.00000      -   545  163s
 19253  4525   40.00000   33  804          -   40.00000      -   545  173s
 19254  4526   40.00000   11  804          -   40.00000      -   545  176s
 19255  4530   40.00000   15  885          -   40.00000      -   1.9  195s
 19257  4533   40.00000   16  757          -   40.00000      -   2.0  212s
 19261  4540   40.00000   17  737          -   40.00000      -   2.0  230s
 19269  4553   40.00000   18  561          -   40.00000      -   2.1  237s
 19285  4580   40.00000   19  574          -   40.00000      -   2.5  246s
 19317  4633   40.00000   20  754          -   40.00000      -   3.6  264s
 19380  4612   40.00000   20  961          -   40.00000      -   5.5  269s
 19381  4676   40.00000   21  934          -   40.00000      -   5.7  281s
 19435  4658   40.00000   21  923          -   40.00000      -  10.0  286s
 19445  4718   40.00000   22  929          -   40.00000      -  10.7  292s
 19509  4851   40.00000   23  908          -   40.00000      -  13.7  307s
 19669  5032   40.00000   25  917          -   40.00000      -  17.5  374s
 19980  4928   40.00000   23  715          -   40.00000      -  32.3  379s
 20059  5480   40.00000   28  437          -   40.00000      -  35.6  428s
 21037  5154   40.00000   22  924          -   40.00000      -  67.5  432s
 21620  5398   40.00000   23  478          -   40.00000      -  86.5  507s
 22308  5169   40.00000   27  716          -   40.00000      -   121  510s
 22805  5695   40.00000   25  965          -   40.00000      -   144  602s
 25228  5708   40.00000   31  473          -   40.00000      -   177  705s
 28600  5090   40.00000   27 1058          -   40.00000      -   211  800s
 32678  3889 infeasible   27               -   40.00000      -   247  925s
 33711  4160   40.00000   33 1013          -   40.00000      -   254 1067s
 38523  4273   40.00000   29  957          -   40.00000      -   285 1177s
 43016  4421   40.00000   31  952          -   40.00000      -   309 1320s
 47290  4591 infeasible   40               -   40.00000      -   330 1461s
 51958  4879   40.00000   33  954          -   40.00000      -   350 1557s
 56230  5209 infeasible   42               -   40.00000      -   366 1634s
 60902  5425   40.00000   28  504          -   40.00000      -   381 1707s
 65036  5532   40.00000   29  911          -   40.00000      -   407 1753s
 70215  5655   40.00000   40 1022          -   40.00000      -   419 1800s

Cutting planes:
  Flow cover: 85
  Zero half: 1518
  RLT: 270

Explored 73190 nodes (41586121 simplex iterations) in 1800.11 seconds (1300.08 work units)
Thread count was 64 (of 64 available processors)

Solution count 0

Time limit reached
Best objective -, best bound 4.000000000000e+01, gap -
     2091.02 - best linearization 39


